--- Job Queens.gms Start 09/02/24 04:24:03 47.5.0 d6b95593 WEX-WEI x86 64bit/MS Windows
--- Applying:
    C:\GAMS\47\gmsprmNT.txt
    C:\Users\erwin\Documents\GAMS\gamsconfig.yaml
--- GAMS Parameters defined
    MIP CPLEX
    Input C:\projects\OptimizationModels\Queens\Queens.gms
    PageWidth 130
    PageSize 0
    ScrDir C:\projects\OptimizationModels\Queens\225a\
    SysDir C:\GAMS\47\
    LogOption 3
    ErrMsg 1
    ErrorLog 99
    IDE 1
    LstTitleLeftAligned 1
Licensee: Eval License                                   G231201|0002CO-GEN
          Amsterdam Optimization Modeling Group,                     DCE378
          C:\Users\erwin\Documents\GAMS\gamslice.txt
          License Admin: Erwin Kalvelagen, info@amsterdamoptimization.com  
          Evaluation license: Not for commercial or production use
          The evaluation period of the license will expire on Nov 25, 2024
Processor information: 1 socket(s), 8 core(s), and 16 thread(s) available
GAMS 47.5.0   Copyright (C) 1987-2024 GAMS Development. All rights reserved
--- Starting compilation
--- Queens.gms(85) 3 Mb
--- $echo File C:\projects\OptimizationModels\Queens\cplex.opt
--- Queens.gms(208) 3 Mb
--- Starting execution: elapsed 0:00:00.012
--- Queens.gms(69) 4 Mb
--- Generating MIP model queens
--- Queens.gms(70) 4 Mb
---   43 rows  65 columns  317 non-zeroes
---   64 discrete-columns
--- Range statistics (absolute non-zero finite values)
--- RHS       [min, max] : [ 1.000E+00, 1.000E+00] - Zero values observed as well
--- Bound     [min, max] : [ 1.000E+00, 1.000E+00] - Zero values observed as well
--- Matrix    [min, max] : [ 1.000E+00, 1.000E+00]
--- Executing CPLEX (Solvelink=2): elapsed 0:00:00.066

IBM ILOG CPLEX   47.5.0 d6b95593 Aug 29, 2024          WEI x86 64bit/MS Window

--- GAMS/CPLEX licensed for continuous and discrete problems.
--- GMO setup time: 0.00s
--- GMO memory 0.51 Mb (peak 0.51 Mb)
--- Dictionary memory 0.00 Mb
--- Cplex 22.1.1.0 link memory 0.00 Mb (peak 0.01 Mb)
--- Starting Cplex

Version identifier: 22.1.1.0 | 2022-11-27 | 9160aff4d
CPXPARAM_Advance                                 0
CPXPARAM_MIP_Display                             4
CPXPARAM_MIP_Pool_Capacity                       0
CPXPARAM_MIP_Tolerances_AbsMIPGap                0
Generic callback                                 0x50
Found incumbent of value 0.000000 after 0.00 sec. (0.00 ticks)
Tried aggregator 1 time.
MIP Presolve eliminated 0 rows and 1 columns.
MIP Presolve modified 8 coefficients.
Reduced MIP has 42 rows, 64 columns, and 270 nonzeros.
Reduced MIP has 64 binaries, 0 generals, 0 SOSs, and 0 indicators.
Presolve time = 0.00 sec. (0.15 ticks)
Probing time = 0.00 sec. (0.07 ticks)
Tried aggregator 1 time.
Detecting symmetries...
Reduced MIP has 42 rows, 64 columns, and 270 nonzeros.
Reduced MIP has 64 binaries, 0 generals, 0 SOSs, and 0 indicators.
Presolve time = 0.00 sec. (0.19 ticks)
Probing time = 0.00 sec. (0.07 ticks)
Clique table members: 42.
MIP emphasis: balance optimality and feasibility.
MIP search method: dynamic search.
Parallel mode: deterministic, using up to 16 threads.
Parallel mode: deterministic, using up to 3 threads for parallel tasks at root LP.
Tried aggregator 1 time.
No LP presolve or aggregator reductions.
Presolve time = 0.00 sec. (0.03 ticks)

Iteration log . . .
Iteration:     1   Dual objective     =            57.000000
Root relaxation solution time = 0.00 sec. (0.27 ticks)

        Nodes                                         Cuts/
   Node  Left     Objective  IInf  Best Integer    Best Bound    ItCnt     Gap

*     0+    0                            0.0000       64.0000              --- 
Found incumbent of value 0.000000 after 0.00 sec. (0.86 ticks)
*     0+    0                            5.0000       64.0000              --- 
Found incumbent of value 5.000000 after 0.00 sec. (0.86 ticks)
*     0+    0                            7.0000       64.0000           814.29%
Found incumbent of value 7.000000 after 0.00 sec. (0.86 ticks)
*     0+    0                            8.0000       64.0000           700.00%
Found incumbent of value 8.000000 after 0.00 sec. (0.86 ticks)
      0     0        cutoff              8.0000        8.0000       60    0.00%
      0     0        cutoff              8.0000        8.0000       60    0.00%
Elapsed time = 0.00 sec. (0.91 ticks, tree = 0.01 MB)

Root node processing (before b&c):
  Real time             =    0.00 sec. (0.91 ticks)
Parallel b&c, 16 threads:
  Real time             =    0.00 sec. (0.00 ticks)
  Sync time (average)   =    0.00 sec.
  Wait time (average)   =    0.00 sec.
                          ------------
Total (root+branch&cut) =    0.00 sec. (0.91 ticks)

--- MIP status (101): integer optimal solution.
--- Cplex Time: 0.00sec (det. 0.91 ticks)

--- Returning a primal only solution to GAMS (marginals all set to NA).
--- Fixing integer variables and solving final LP...

Version identifier: 22.1.1.0 | 2022-11-27 | 9160aff4d
CPXPARAM_Advance                                 2
CPXPARAM_MIP_Display                             4
CPXPARAM_MIP_Pool_Capacity                       0
CPXPARAM_MIP_Tolerances_AbsMIPGap                0
Tried aggregator 1 time.
LP Presolve eliminated 42 rows and 65 columns.
All rows and columns eliminated.
Presolve time = 0.00 sec. (0.03 ticks)

--- Fixed MIP status (1): optimal.
--- Cplex Time: 0.00sec (det. 0.04 ticks)


Proven optimal solution
MIP Solution:            8.000000    (60 iterations, 0 nodes)
Final Solve:             8.000000    (0 iterations)

Best possible:           8.000000
Absolute gap:            0.000000
Relative gap:            0.000000

--- Reading solution for model queens
--- Executing after solve: elapsed 0:00:00.195
--- Queens.gms(97) 4 Mb
--- Generating MIP model queens
--- Queens.gms(98) 4 Mb
---   43 rows  65 columns  317 non-zeroes
---   64 discrete-columns
--- Range statistics (absolute non-zero finite values)
--- RHS       [min, max] : [ 1.000E+00, 1.000E+00] - Zero values observed as well
--- Bound     [min, max] : [ 1.000E+00, 1.000E+00] - Zero values observed as well
--- Matrix    [min, max] : [ 1.000E+00, 1.000E+00]
--- Executing CPLEX (Solvelink=2): elapsed 0:00:00.196

IBM ILOG CPLEX   47.5.0 d6b95593 Aug 29, 2024          WEI x86 64bit/MS Window

--- GAMS/CPLEX licensed for continuous and discrete problems.

Reading parameter(s) from "C:\projects\OptimizationModels\Queens\cplex.opt"
>>  SolnPoolAGap=0.1
>>  solnpoolintensity=4
>>  solnpoolpop=2
>>  populatelim=100000
>>  solnpoolmerge=allsols.gdx
>> 
>>  *to reproduce Cplex bug use:
>>  SolnPoolAGap=0
>>  threads=1
Finished reading from "C:\projects\OptimizationModels\Queens\cplex.opt"

--- GMO setup time: 0.00s
--- GMO memory 0.51 Mb (peak 0.51 Mb)
--- Dictionary memory 0.00 Mb
--- Cplex 22.1.1.0 link memory 0.00 Mb (peak 0.01 Mb)
--- Starting Cplex

Version identifier: 22.1.1.0 | 2022-11-27 | 9160aff4d
CPXPARAM_Advance                                 0
CPXPARAM_Threads                                 1
CPXPARAM_MIP_Display                             4
CPXPARAM_MIP_Pool_Intensity                      4
CPXPARAM_MIP_Limits_Populate                     100000
CPXPARAM_MIP_Tolerances_AbsMIPGap                0
CPXPARAM_MIP_Pool_AbsGap                         0
Generic callback                                 0x50

Populate: phase I 
Found incumbent of value 0.000000 after 0.00 sec. (0.00 ticks)
Tried aggregator 1 time.
MIP Presolve eliminated 0 rows and 1 columns.
MIP Presolve modified 8 coefficients.
Reduced MIP has 42 rows, 64 columns, and 270 nonzeros.
Reduced MIP has 64 binaries, 0 generals, 0 SOSs, and 0 indicators.
Presolve time = 0.00 sec. (0.11 ticks)
Probing time = 0.00 sec. (0.07 ticks)
Tried aggregator 1 time.
Reduced MIP has 42 rows, 64 columns, and 270 nonzeros.
Reduced MIP has 64 binaries, 0 generals, 0 SOSs, and 0 indicators.
Presolve time = 0.00 sec. (0.10 ticks)
Probing time = 0.00 sec. (0.07 ticks)
Clique table members: 42.
MIP emphasis: balance optimality and feasibility.
MIP search method: dynamic search.
Parallel mode: none, using 1 thread.
Tried aggregator 1 time.
No LP presolve or aggregator reductions.
Presolve time = 0.00 sec. (0.02 ticks)

Iteration log . . .
Iteration:     1   Dual objective     =            57.000000
Root relaxation solution time = 0.00 sec. (0.26 ticks)

        Nodes                                         Cuts/
   Node  Left     Objective  IInf  Best Integer    Best Bound    ItCnt     Gap

*     0+    0                            0.0000       64.0000              --- 
Found incumbent of value 0.000000 after 0.00 sec. (0.73 ticks)
      0     0        8.0000    10        0.0000        8.0000       60     --- 
*     0+    0                            7.0000        8.0000            14.29%
Found incumbent of value 7.000000 after 0.00 sec. (0.81 ticks)
*     0+    0                            8.0000        8.0000             0.00%
Found incumbent of value 8.000000 after 0.00 sec. (1.20 ticks)

Root node processing (before b&c):
  Real time             =    0.00 sec. (1.21 ticks)
Sequential b&c:
  Real time             =    0.00 sec. (0.00 ticks)
                          ------------
Total (root+branch&cut) =    0.00 sec. (1.21 ticks)

Populate: phase II 
MIP emphasis: balance optimality and feasibility.
MIP search method: dynamic search.
Parallel mode: none, using 1 thread.

        Nodes                                         Cuts/
   Node  Left     Objective  IInf  Best Integer    Best Bound    ItCnt     Gap

      0     2        8.0000     1        8.0000        8.0000       60    0.00%
Elapsed time = 0.00 sec. (1.47 ticks, tree = 0.01 MB, solutions = 1)

Root node processing (before b&c):
  Real time             =    0.00 sec. (0.30 ticks)
Sequential b&c:
  Real time             =    0.06 sec. (69.91 ticks)
                          ------------
Total (root+branch&cut) =    0.06 sec. (70.21 ticks)

--- MIP status (130): all reachable solutions enumerated, pool tolerance.
--- Cplex Time: 0.06sec (det. 71.42 ticks)

--- Dumping 91 solutions from the solution pool...
--- Returning a primal only solution to GAMS (marginals all set to NA).
--- Fixing integer variables and solving final LP...

Version identifier: 22.1.1.0 | 2022-11-27 | 9160aff4d
CPXPARAM_Advance                                 2
CPXPARAM_Threads                                 1
CPXPARAM_MIP_Display                             4
CPXPARAM_MIP_Pool_Intensity                      4
CPXPARAM_MIP_Limits_Populate                     100000
CPXPARAM_MIP_Tolerances_AbsMIPGap                0
CPXPARAM_MIP_Pool_AbsGap                         0
Tried aggregator 1 time.
LP Presolve eliminated 42 rows and 65 columns.
All rows and columns eliminated.
Presolve time = 0.00 sec. (0.03 ticks)

--- Fixed MIP status (1): optimal.
--- Cplex Time: 0.00sec (det. 0.04 ticks)


Populate has completed the enumeration of solutions within tolerance
MIP Solution:            8.000000    (8502 iterations, 1755 nodes)
Final Solve:             8.000000    (0 iterations)

Best possible:           8.000000
Absolute gap:            0.000000
Relative gap:            0.000000

--- Reading solution for model queens
--- Executing after solve: elapsed 0:00:00.304
--- Queens.gms(114) 4 Mb
--- GDXin=C:\projects\OptimizationModels\Queens\allsols.gdx
--- GDX File (execute_load) C:\projects\OptimizationModels\Queens\allsols.gdx
--- Queens.gms(208) 6 Mb
--- Putfile f C:\projects\OptimizationModels\Queens\allsolutions.html
*** Status: Normal completion
--- Job Queens.gms Stop 09/02/24 04:24:05 elapsed 0:00:01.568
